# Objective value = 1.9590499999999988e+03
I_0_0 462
I_0_1 620
I_0_2 572
I_0_3 5.6499999999999613e+02
I_1_0 34
I_1_1 17
I_1_2 0
I_1_3 34
I_2_0 12
I_2_1 0
I_2_2 12
I_2_3 0
I_3_0 76
I_3_1 38
I_3_2 0
I_3_3 76
I_4_0 62
I_4_1 31
I_4_2 62
I_4_3 31
I_5_0 120
I_5_1 60
I_5_2 1.2000000000000003e+02
I_5_3 6.0000000000000028e+01
q_1_0 0
q_1_1 0
q_1_2 51
q_2_0 0
q_2_1 24
q_2_2 0
q_3_0 0
q_3_1 0
q_3_2 114
q_4_0 0
q_4_1 62
q_4_2 0
q_5_0 0
q_5_1 120
q_5_2 0
y_0_0 0
y_0_1 1
y_0_2 1
y_1_0 0
y_1_1 0
y_1_2 1
y_2_0 0
y_2_1 1
y_2_2 0
y_3_0 0
y_3_1 0
y_3_2 1
y_4_0 0
y_4_1 1
y_4_2 0
y_5_0 0
y_5_1 1
y_5_2 0
x_0_1_0 0
x_0_1_1 0
x_0_1_2 1
x_0_2_0 0
x_0_2_1 1
x_0_2_2 0
x_0_3_0 0
x_0_3_1 0
x_0_3_2 1
x_0_4_0 0
x_0_4_1 1
x_0_4_2 0
x_0_5_0 0
x_0_5_1 0
x_0_5_2 0
x_1_2_0 0
x_1_2_1 0
x_1_2_2 0
x_1_3_0 0
x_1_3_1 0
x_1_3_2 1
x_1_4_0 0
x_1_4_1 0
x_1_4_2 0
x_1_5_0 0
x_1_5_1 0
x_1_5_2 0
x_2_3_0 0
x_2_3_1 0
x_2_3_2 0
x_2_4_0 0
x_2_4_1 0
x_2_4_2 0
x_2_5_0 0
x_2_5_1 1
x_2_5_2 0
x_3_4_0 0
x_3_4_1 0
x_3_4_2 0
x_3_5_0 0
x_3_5_1 0
x_3_5_2 0
x_4_5_0 0
x_4_5_1 1
x_4_5_2 0
